This file is generated by VASPKIT code
   1.000
    4.2322551996927471    0.0000000000000000    0.0000000000000000
    0.0000000000000000    7.3304810364654021    0.0000000000000000
    0.0000000000000000    0.0000000000000000   10.8768228211451188
   Ge   Te
    6    6
Direct
    0.0000000000000000    0.0000000000000000    0.0044709823400950    Ge1
    0.5000000000000000    0.5000000000000000    0.0044709823400950    Ge2
    0.5000000000000000    0.8333333333333357    0.6711376490067664    Ge3
    0.0000000000000000    0.3333333333333357    0.6711376490067664    Ge4
    0.5000000000000000    0.1666666666666643    0.3378043156734307    Ge5
    0.0000000000000000    0.6666666666666643    0.3378043156734307    Ge6
    0.5000000000000000    0.8333333333333357    0.1411956838861599    Te1
    0.0000000000000000    0.3333333333333357    0.1411956838861599    Te2
    0.5000000000000000    0.1666666666666643    0.8078623505528313    Te3
    0.0000000000000000    0.6666666666666643    0.8078623505528313    Te4
    0.0000000000000000    0.0000000000000000    0.4745290172194956    Te5
    0.5000000000000000    0.5000000000000000    0.4745290172194956    Te6
