Primitive Cell
  1.000000
    2.11592197650462    1.22162812271919    3.62581444949670
   -2.11592197650462    1.22162812271919    3.62581444949670
    0.00000000000000   -2.44325624543838    3.62581444949670
  Ge  Te
   1   1
DIRECT
    0.9999620412047389    0.9999620412047392    0.9999620412047391    Ge1
    0.5300379627243217    0.5300379627243217    0.5300379627243217    Te1
