#Generated by Multiwfn
&GLOBAL
  PROJECT cp2k
  PRINT_LEVEL MEDIUM
  RUN_TYPE ENERGY_FORCE
  PREFERRED_DIAG_LIBRARY SL
&END GLOBAL

&FORCE_EVAL
  METHOD Quickstep
  &SUBSYS
    &TOPOLOGY
      COORD_FILE_FORMAT CIF #The format of the file providing coordinates
      COORD_FILE_NAME sc661.cif
    &END TOPOLOGY
    &CELL
      A    23.97480066     0.00000000     0.00000000
      B   -11.99736804    20.76929832     0.00000000
      C     0.00000000     0.00000000    20.22163904
      PERIODIC XYZ #Direction(s) of applied PBC (geometry aspect)
    &END CELL
    &KIND Ga
      ELEMENT Ga
      BASIS_SET pob-TZVP-rev2
      POTENTIAL ALL
    &END KIND
    &KIND Te
      ELEMENT Te
      BASIS_SET pob-TZVP-rev2-q24
      POTENTIAL GTH-PBE-q24
    &END KIND
    &KIND Fe
      ELEMENT Fe
      BASIS_SET pob-TZVP-rev2
      POTENTIAL ALL
      MAGNETIZATION  4.00
    &END KIND
  &END SUBSYS

  &DFT
    BASIS_SET_FILE_NAME  BASIS_pob
    POTENTIAL_FILE_NAME  POTENTIAL_UZH
#   WFN_RESTART_FILE_NAME sc661-RESTART.wfn
    CHARGE    0 #Net charge
    MULTIPLICITY  433 #Spin multiplicity
    UKS
    &QS
      EPS_DEFAULT 1.0E-12 #Set all EPS_xxx to values such that the energy will be correct up to this value
      METHOD GAPW
    &END QS
    &POISSON
      PERIODIC XYZ #Direction(s) of PBC for calculating electrostatics
      PSOLVER PERIODIC #The way to solve Poisson equation
    &END POISSON
    &XC
      &XC_FUNCTIONAL PBE
      &END XC_FUNCTIONAL
    &END XC
    &MGRID
      CUTOFF 1000
      REL_CUTOFF  60
    &END MGRID
    &SCF
      MAX_SCF 25 #Maximum number of steps of inner SCF
      EPS_SCF 1.0E-06 #Convergence threshold of density matrix of inner SCF
#     SCF_GUESS RESTART #Use wavefunction from WFN_RESTART_FILE_NAME file as initial guess
      &OT
        PRECONDITIONER FULL_ALL #Usually best but expensive for large system. Cheaper: FULL_SINGLE_INVERSE and FULL_KINETIC
        MINIMIZER DIIS #CG is worth to consider in difficult cases
        LINESEARCH 2PNT #1D line search algorithm for CG. 2PNT is default, 3PNT is better but more costly. GOLD is best but very expensive
        ALGORITHM IRAC #Algorithm of OT. Can be STRICT (default) or IRAC
      &END OT
      &OUTER_SCF
        MAX_SCF 20 #Maximum number of steps of outer SCF
        EPS_SCF 1.0E-06 #Convergence threshold of outer SCF
      &END OUTER_SCF
      &PRINT
        &RESTART #Note: Use "&RESTART OFF" can prevent generating .wfn file
          BACKUP_COPIES 0 #Maximum number of backup copies of wfn file. 0 means never
        &END RESTART
      &END PRINT
    &END SCF
    &PRINT
      &MULLIKEN
        PRINT_ALL F #If T, then printing full net AO and overlap population matrix
      &END MULLIKEN
      &MOMENTS
        PERIODIC T #Use Berry phase formula (T) or simple operator (F), the latter normally applies to isolated systems
      &END MOMENTS
    &END PRINT
  &END DFT
  &PRINT
    &FORCES ON #Print atomic forces
    &END FORCES
  &END PRINT
&END FORCE_EVAL
