#Generated by Multiwfn
&GLOBAL
  PROJECT Sb2Te3
  PRINT_LEVEL LOW
  RUN_TYPE MD
&END GLOBAL

&FORCE_EVAL
  METHOD Quickstep
  &SUBSYS
    &CELL
      A     4.30391797     0.00000000     0.00000000
      B    -2.15195898     3.72730229     0.00000000
      C     0.00000000     0.00000000    31.77741530
      PERIODIC XYZ #Direction(s) of applied PBC (geometry aspect)
    &END CELL
    &COORD
      Sb         -0.00002152    2.48488062    8.60754848
      Sb         -0.00002152    2.48488062    1.98481736
      Sb          2.15195898    3.72730229   19.19991433
      Sb          2.15195898    3.72730229   12.57750098
      Sb          2.15198050    1.24242167   29.79259794
      Sb          2.15198050    1.24242167   23.16986682
      Te          2.15198050    1.24242167    3.68236689
      Te          2.15195898    3.72730229    6.90999896
      Te          0.00000000    0.00000000    0.00000000
      Te         -0.00002152    2.48488062   14.27473273
      Te          2.15198050    1.24242167   17.50268257
      Te          2.15198050    1.24242167   10.59236584
      Te          2.15195898    3.72730229   24.86741635
      Te         -0.00002152    2.48488062   28.09504842
      Te         -0.00002152    2.48488062   21.18504946
    &END COORD
#   &VELOCITY #You can set initial atomic velocities in this section
#   &END VELOCITY
    &KIND Sb
      ELEMENT Sb
      BASIS_SET TZVP-MOLOPT-GTH-q5
      POTENTIAL GTH-PBE
    &END KIND
    &KIND Te
      ELEMENT Te
      BASIS_SET TZVP-MOLOPT-GTH-q6
      POTENTIAL GTH-PBE
    &END KIND
  &END SUBSYS

  &DFT
    BASIS_SET_FILE_NAME  BASIS_MOLOPT
    POTENTIAL_FILE_NAME  POTENTIAL
#   WFN_RESTART_FILE_NAME Sb2Te3-RESTART.wfn
    CHARGE    0 #Net charge
    MULTIPLICITY    1 #Spin multiplicity
    &QS
      EPS_DEFAULT 1.0E-12 #Set all EPS_xxx to values such that the energy will be correct up to this value
      EXTRAPOLATION ASPC #Extrapolation for wavefunction during e.g. MD. ASPC is default, PS can also be used
      EXTRAPOLATION_ORDER 3 #Order for PS or ASPC extrapolation. 3 is default
    &END QS
    &POISSON
      PERIODIC XYZ #Direction(s) of PBC for calculating electrostatics
      PSOLVER PERIODIC #The way to solve Poisson equation
    &END POISSON
    &XC
      &XC_FUNCTIONAL PBE
      &END XC_FUNCTIONAL
      &VDW_POTENTIAL
        POTENTIAL_TYPE PAIR_POTENTIAL
        &PAIR_POTENTIAL
          PARAMETER_FILE_NAME dftd3.dat
          TYPE DFTD3(BJ)
          REFERENCE_FUNCTIONAL PBE
          #CALCULATE_C9_TERM T #Calculate C9-related three-body term, more accurate for large system
        &END PAIR_POTENTIAL
      &END VDW_POTENTIAL
    &END XC
    &MGRID
      CUTOFF  300
      REL_CUTOFF  40
      NGRIDS 5 #The number of multigrids to use. 5 is optimal for MOLOPT-GTH basis sets
    &END MGRID
    &SCF
      MAX_SCF 25 #Maximum number of steps of inner SCF
      EPS_SCF 1.0E-05 #Convergence threshold of density matrix of inner SCF
#     SCF_GUESS RESTART #Use wavefunction from WFN_RESTART_FILE_NAME file as initial guess
      &OT
        PRECONDITIONER FULL_ALL #Usually best but expensive for large system. Cheaper: FULL_SINGLE_INVERSE and FULL_KINETIC
        MINIMIZER DIIS #CG is worth to consider in difficult cases
        LINESEARCH 2PNT #1D line search algorithm for CG. 2PNT is default, 3PNT is better but more costly. GOLD is best but very expensive
        ALGORITHM STRICT #Algorithm of OT. Can be STRICT (default) or IRAC
      &END OT
      &OUTER_SCF
        MAX_SCF 20 #Maximum number of steps of outer SCF
        EPS_SCF 1.0E-05 #Convergence threshold of outer SCF
      &END OUTER_SCF
      &PRINT
        &RESTART OFF #Do not generate wfn file to suppress meaningless I/O cost
        &END RESTART
      &END PRINT
    &END SCF
    &PRINT
      &LOWDIN
        PRINT_ALL F #If T, then printing full net AO and overlap population matrix
      &END LOWDIN
    &END PRINT
  &END DFT
&END FORCE_EVAL

&MOTION
  &MD
    ENSEMBLE NVT
    STEPS 200 #Number of steps to run
    TIMESTEP 1.0 #Step size in fs. Decrease it properly for high temperature simulation
    TEMPERATURE 298.15 #Initial and maintained temperature (K)
#   COMVEL_TOL 0 #Uncomment this can remove translation motion of center-of-mass every step
    &THERMOSTAT
      TYPE CSVR
      &CSVR
        TIMECON 200 #Time constant in fs. Smaller/larger results in stronger/weaker temperature coupling
      &END CSVR
    &END THERMOSTAT
    &PRINT
      &PROGRAM_RUN_INFO
        &EACH
          MD     1 #Output frequency of MD information, 0 means never
        &END EACH
      &END PROGRAM_RUN_INFO
    &END PRINT
  &END MD
  &PRINT
    &TRAJECTORY
      &EACH
        MD   1 #Output frequency of coordinates, 0 means never
      &END EACH
      FORMAT xyz
    &END TRAJECTORY
    &VELOCITIES
      &EACH
        MD     0 #Output frequency of velocities, 0 means never
      &END EACH
    &END VELOCITIES
    &FORCES
      &EACH
        MD     0 #Output frequency of forces, 0 means never
      &END EACH
    &END FORCES
    &RESTART
      BACKUP_COPIES 0 #Maximum number of backing up restart file, 0 means never
      &EACH
        MD  1 #Frequency of updating last restart file, 0 means never
      &END EACH
    &END RESTART
    &RESTART_HISTORY OFF 
    &END RESTART_HISTORY
  &END PRINT
&END MOTION
