#Generated by Multiwfn
&GLOBAL
  PROJECT cp2k
  PRINT_LEVEL LOW
  RUN_TYPE CELL_OPT
&END GLOBAL

&FORCE_EVAL
  METHOD Quickstep
  &SUBSYS
    &CELL
      A    31.56642264     0.00000000     0.00000000
      B    -0.08217580    11.84122420     0.00000000
      C     0.00000000     0.00000000    40.63620444
      PERIODIC XYZ #Direction(s) of applied PBC (geometry aspect)
    &END CELL
    &TOPOLOGY
      &CENTER_COORDINATES
      &END CENTER_COORDINATES
      COORD_FILE_NAME model.xyz
      COORD_FILE_FORMAT XYZ
    &END TOPOLOGY
    &KIND Zn
      ELEMENT Zn
      BASIS_SET TZVP-MOLOPT-SR-GTH
      POTENTIAL GTH-PBE
    &END KIND
    &KIND Sn
      ELEMENT Sn
      BASIS_SET TZVP-MOLOPT-SR-GTH-q4
      POTENTIAL GTH-PBE-q4
    &END KIND
    &KIND O
      ELEMENT O
      BASIS_SET TZVP-GTH-q6
      POTENTIAL GTH-PBE-q6
    &END KIND
  &END SUBSYS

  &DFT
    BASIS_SET_FILE_NAME  /home/jingjinghu-ICME/Software/cp2k-2023.1/data/BASIS_MOLOPT_UCL
    BASIS_SET_FILE_NAME  /home/jingjinghu-ICME/Software/cp2k-2023.1/data/GTH_BASIS_SETS
    POTENTIAL_FILE_NAME  /home/jingjinghu-ICME/Software/cp2k-2023.1/data/POTENTIAL
#   WFN_RESTART_FILE_NAME cp2k-RESTART.wfn
    CHARGE    0 #Net charge
    MULTIPLICITY    1 #Spin multiplicity
    &QS
      EPS_DEFAULT 1.0E-12 #Set all EPS_xxx to values such that the energy will be correct up to this value
    &END QS
    &POISSON
      PERIODIC XYZ #Direction(s) of PBC for calculating electrostatics
      PSOLVER ANALYTIC #The way to solve Poisson equation
    &END POISSON
    &XC
      &XC_FUNCTIONAL PBE
      &END XC_FUNCTIONAL
      &VDW_POTENTIAL
        POTENTIAL_TYPE PAIR_POTENTIAL
        &PAIR_POTENTIAL
          PARAMETER_FILE_NAME /home/jingjinghu-ICME/Software/cp2k-2023.1/data/dftd3.dat
          TYPE DFTD3(BJ)
          REFERENCE_FUNCTIONAL PBE
          #CALCULATE_C9_TERM T #Calculate C9-related three-body term, more accurate for large system
        &END PAIR_POTENTIAL
      &END VDW_POTENTIAL
    &END XC
    &MGRID
      CUTOFF  1000
      REL_CUTOFF  55
      NGRIDS 5 #The number of multigrids to use. 5 is optimal for MOLOPT-GTH basis sets
    &END MGRID
    &SCF
      MAX_SCF 300
      EPS_SCF 1.0E-05 #Convergence threshold of density matrix of inner SCF
#     SCF_GUESS RESTART #Use wavefunction from WFN_RESTART_FILE_NAME file as initial guess
      &DIAGONALIZATION
        ALGORITHM STANDARD #Algorithm for diagonalization
	EPS_ADAPT 0.01
      &END DIAGONALIZATION
      &MIXING #How to mix old and new density matrices
        METHOD BROYDEN_MIXING #PULAY_MIXING is also a good alternative
        ALPHA 0.4 #Default. Mixing 40% of new density matrix with the old one
	BETA 1.5
        NBROYDEN 8 #Default is 4. Number of previous steps stored for the actual mixing scheme
      &END MIXING
      &SMEAR
        METHOD FERMI_DIRAC
        ELECTRONIC_TEMPERATURE 300 #Electronic temperature of Fermi-Dirac smearing in K
      &END SMEAR
      ADDED_MOS   222 #Number of virtual MOs to solve
      &PRINT
        &RESTART #Note: Use "&RESTART OFF" can prevent generating .wfn file
          BACKUP_COPIES 0 #Maximum number of backup copies of wfn file. 0 means never
        &END RESTART
      &END PRINT
    &END SCF
  &END DFT
  &PRINT
    &STRESS_TENSOR ON #Print stress tensor
    &END STRESS_TENSOR
  &END PRINT
  STRESS_TENSOR ANALYTICAL #Compute full stress tensor analytically
&END FORCE_EVAL

&MOTION
  &CELL_OPT
    MAX_ITER 400 #Maximum number of geometry optimization
    EXTERNAL_PRESSURE  1.01325E+00 #External pressure for cell optimization (bar)
    CONSTRAINT Z #Constraint of cell length, can be: NONE, X, Y, Z, XY, XZ, YZ
    KEEP_ANGLES F #If T, then cell angles will be kepted
    KEEP_SYMMETRY F #If T, then cell symmetry specified by &CELL / SYMMETRY will be kepted
    KEEP_SPACE_GROUP F #If T, then space group will be detected and preserved
    TYPE DIRECT_CELL_OPT #Geometry and cell are optimized at the same time. Can also be GEO_OPT, MD
    #The following thresholds of optimization convergence are the default ones
    MAX_DR 3E-3 #Maximum geometry change
    RMS_DR 1.5E-3 #RMS geometry change
    MAX_FORCE 4.5E-4 #Maximum force
    RMS_FORCE 3E-4 #RMS force
    PRESSURE_TOLERANCE 100 #Pressure tolerance (w.r.t EXTERNAL_PRESSURE)
    OPTIMIZER LBFGS #Can also be CG (more robust for difficult cases) or BFGS
  &END CELL_OPT
  &PRINT
    &TRAJECTORY
      FORMAT XYZ
    &END TRAJECTORY
    &RESTART
      BACKUP_COPIES 0 #Maximum number of backing up restart file, 0 means never
    &END RESTART
    &RESTART_HISTORY OFF 
    &END RESTART_HISTORY
  &END PRINT
&END MOTION
