#Generated by Multiwfn
&GLOBAL
  PROJECT FGT-5L-on-MPS-super
  PRINT_LEVEL Medium
  RUN_TYPE GEO_OPT
  PREFERRED_DIAG_LIBRARY ScaLAPACK
  EXTENDED_FFT_LENGTHS T
&END GLOBAL

&FORCE_EVAL
  METHOD Quickstep
  &SUBSYS
    &CELL
      A    12.2041920116000728     0.00000000     0.00000000
      B     0.00000000    21.1338721002163901     0.00000000
      C     0.00000000     0.00000000   75.0000000000000000
      PERIODIC XY #Direction(s) of applied PBC (geometry aspect)
    &END CELL
    &COORD
      Mn_A        3.01598486    1.76345238    8.76810000
      Mn_A        9.11807986    1.76345238    8.76810000
      Mn_B        6.06703236    3.52001512    8.76810000
      Mn_B       12.16912736    3.52001512    8.76810000
      Mn_A        6.06703236    7.04691988    8.76810000
      Mn_A       12.16912736    7.04691988    8.76810000
      Mn_B        3.01598486    8.80348262    8.76810000
      Mn_B        9.11807986    8.80348262    8.76810000
      Mn_A        3.01598486   12.33038738    8.76810000
      Mn_A        9.11807986   12.33038738    8.76810000
      Mn_B        6.06703236   14.08695012    8.76810000
      Mn_B       12.16912736   14.08695012    8.76810000
      Mn_A        6.06703236   17.61385488    8.76810000
      Mn_A       12.16912736   17.61385488    8.76810000
      Mn_B        3.01598486   19.37041762    8.76810000
      Mn_B        9.11807986   19.37041762    8.76810000
      Mn_A        0.99824172    1.76345238   15.31500000
      Mn_A        7.10033672    1.76345238   15.31500000
      Mn_B        4.04928922    3.52001512   15.31500000
      Mn_B       10.15138422    3.52001512   15.31500000
      Mn_A        4.04928922    7.04691988   15.31500000
      Mn_A       10.15138422    7.04691988   15.31500000
      Mn_B        0.99824172    8.80348262   15.31500000
      Mn_B        7.10033672    8.80348262   15.31500000
      Mn_A        0.99824172   12.33038738   15.31500000
      Mn_A        7.10033672   12.33038738   15.31500000
      Mn_B        4.04928922   14.08695012   15.31500000
      Mn_B       10.15138422   14.08695012   15.31500000
      Mn_A        4.04928922   17.61385488   15.31500000
      Mn_A       10.15138422   17.61385488   15.31500000
      Mn_B        0.99824172   19.37041762   15.31500000
      Mn_B        7.10033672   19.37041762   15.31500000
      P           6.06887519   21.13387000    7.65652500
      P          12.17095799   21.13387000    7.65652500
      P           6.06887519   10.56693500    7.65652500
      P          12.17095799   10.56693500    7.65652500
      P           3.01782769    5.28346750    7.65652500
      P           9.11992269    5.28346750    7.65652500
      P           3.01782769   15.85040250    7.65652500
      P           9.11992269   15.85040250    7.65652500
      P           6.07217033    0.00000000    9.87502500
      P          12.17426533    0.00000000    9.87502500
      P           6.07217033   10.56693500    9.87502500
      P          12.17426533   10.56693500    9.87502500
      P           3.02112283    5.28346750    9.87502500
      P           9.12321783    5.28346750    9.87502500
      P           3.02112283   15.85040250    9.87502500
      P           9.12321783   15.85040250    9.87502500
      P           4.04411464    0.00000000   14.20807500
      P          10.14620964    0.00000000   14.20807500
      P           4.04411464   10.56693500   14.20807500
      P          10.14620964   10.56693500   14.20807500
      P           0.99306714    5.28346750   14.20807500
      P           7.09516214    5.28346750   14.20807500
      P           0.99306714   15.85040250   14.20807500
      P           7.09516214   15.85040250   14.20807500
      P           4.04740978    0.00000000   16.42657500
      P          10.14950478    0.00000000   16.42657500
      P           4.04740978   10.56693500   16.42657500
      P          10.14950478   10.56693500   16.42657500
      P           0.99636228    5.28346750   16.42657500
      P           7.09845728    5.28346750   16.42657500
      P           0.99636228   15.85040250   16.42657500
      P           7.09845728   15.85040250   16.42657500
      S           1.93410783    0.00000000    7.11765000
      S           8.03620283    0.00000000    7.11765000
      S           1.93410783   10.56693500    7.11765000
      S           8.03620283   10.56693500    7.11765000
      S           4.98515533    5.28346750    7.11765000
      S          11.08725033    5.28346750    7.11765000
      S           4.98515533   15.85040250    7.11765000
      S          11.08725033   15.85040250    7.11765000
      S           5.08308175    8.86331261    7.11885000
      S          11.18517675    8.86331261    7.11885000
      S           5.08308175   19.43024761    7.11885000
      S          11.18517675   19.43024761    7.11885000
      S           5.08308175    1.70362239    7.11885000
      S          11.18517675    1.70362239    7.11885000
      S           5.08308175   12.27055739    7.11885000
      S          11.18517675   12.27055739    7.11885000
      S           2.03203425    3.57984511    7.11885000
      S           8.13412925    3.57984511    7.11885000
      S           2.03203425   14.14678011    7.11885000
      S           8.13412925   14.14678011    7.11885000
      S           2.03203425    6.98708989    7.11885000
      S           8.13412925    6.98708989    7.11885000
      S           2.03203425   17.55402489    7.11885000
      S           8.13412925   17.55402489    7.11885000
      S           4.09942403    0.00000000   10.40062500
      S          10.20151903    0.00000000   10.40062500
      S           4.09942403   10.56693500   10.40062500
      S          10.20151903   10.56693500   10.40062500
      S           1.04837653    5.28346750   10.40062500
      S           7.15047153    5.28346750   10.40062500
      S           1.04837653   15.85040250   10.40062500
      S           7.15047153   15.85040250   10.40062500
      S           0.95187800    1.70436208   10.41442500
      S           7.05397300    1.70436208   10.41442500
      S           0.95187800   12.27129708   10.41442500
      S           7.05397300   12.27129708   10.41442500
      S           0.95187800    8.86257292   10.41442500
      S           7.05397300    8.86257292   10.41442500
      S           0.95187800   19.42950792   10.41442500
      S           7.05397300   19.42950792   10.41442500
      S           4.00292550    6.98782958   10.41442500
      S          10.10502050    6.98782958   10.41442500
      S           4.00292550   17.55476458   10.41442500
      S          10.10502050   17.55476458   10.41442500
      S           4.00292550    3.57910542   10.41442500
      S          10.10502050    3.57910542   10.41442500
      S           4.00292550   14.14604042   10.41442500
      S          10.10502050   14.14604042   10.41442500
      S           3.06233638    8.86255179   13.66867500
      S           9.16443138    8.86255179   13.66867500
      S           3.06233638   19.42948679   13.66867500
      S           9.16443138   19.42948679   13.66867500
      S           3.06233638    1.70438321   13.66867500
      S           9.16443138    1.70438321   13.66867500
      S           3.06233638   12.27131821   13.66867500
      S           9.16443138   12.27131821   13.66867500
      S           0.01128888    3.57908429   13.66867500
      S           6.11338388    3.57908429   13.66867500
      S           0.01128888   14.14601929   13.66867500
      S           6.11338388   14.14601929   13.66867500
      S           0.01128888    6.98785071   13.66867500
      S           6.11338388    6.98785071   13.66867500
      S           0.01128888   17.55478571   13.66867500
      S           6.11338388   17.55478571   13.66867500
      S           6.01687314    0.00000000   13.68247500
      S          12.11896814    0.00000000   13.68247500
      S           6.01687314   10.56693500   13.68247500
      S          12.11896814   10.56693500   13.68247500
      S           2.96582564    5.28346750   13.68247500
      S           9.06792064    5.28346750   13.68247500
      S           2.96582564   15.85040250   13.68247500
      S           9.06792064   15.85040250   13.68247500
      S           5.03320322    1.70360126   16.96425000
      S          11.13529822    1.70360126   16.96425000
      S           5.03320322   12.27053626   16.96425000
      S          11.13529822   12.27053626   16.96425000
      S           5.03320322    8.86333374   16.96425000
      S          11.13529822    8.86333374   16.96425000
      S           5.03320322   19.43026874   16.96425000
      S          11.13529822   19.43026874   16.96425000
      S           1.98215572    6.98706876   16.96425000
      S           8.08425072    6.98706876   16.96425000
      S           1.98215572   17.55400376   16.96425000
      S           8.08425072   17.55400376   16.96425000
      S           1.98215572    3.57986624   16.96425000
      S           8.08425072    3.57986624   16.96425000
      S           1.98215572   14.14680124   16.96425000
      S           8.08425072   14.14680124   16.96425000
      S           2.08009435    0.00000000   16.96552500
      S           8.18218935    0.00000000   16.96552500
      S           2.08009435   10.56693500   16.96552500
      S           8.18218935   10.56693500   16.96552500
      S           5.13114185    5.28346750   16.96552500
      S          11.23323685    5.28346750   16.96552500
      S           5.13114185   15.85040250   16.96552500
      S          11.23323685   15.85040250   16.96552500
      Fe_3        2.09207886    3.48880039   21.25402500
      Fe_3        6.16013813    3.48880039   21.25402500
      Fe_3       10.22819739    3.48880039   21.25402500
      Fe_3        0.05804313    7.01111910   21.25402500
      Fe_3        4.12610239    7.01111910   21.25402500
      Fe_3        8.19417386    7.01111910   21.25402500
      Fe_3        2.09207886   10.53343782   21.25402500
      Fe_3        6.16013813   10.53343782   21.25402500
      Fe_3       10.22819739   10.53343782   21.25402500
      Fe_3        0.05804313   14.05573539   21.25402500
      Fe_3        4.12610239   14.05573539   21.25402500
      Fe_3        8.19417386   14.05573539   21.25402500
      Fe_3        2.09207886   17.57805410   21.25402500
      Fe_3        6.16013813   17.57805410   21.25402500
      Fe_3       10.22819739   17.57805410   21.25402500
      Fe_3        0.05804313   21.10037282   21.25402500
      Fe_3        4.12610239   21.10037282   21.25402500
      Fe_3        8.19417386   21.10037282   21.25402500
      Fe_3        2.10190324    3.48313652   24.14625000
      Fe_3        6.16997470    3.48313652   24.14625000
      Fe_3       10.23803397    3.48313652   24.14625000
      Fe_3        0.06787970    7.00543409   24.14625000
      Fe_3        4.13593897    7.00543409   24.14625000
      Fe_3        8.20399824    7.00543409   24.14625000
      Fe_3        2.10190324   10.52775281   24.14625000
      Fe_3        6.16997470   10.52775281   24.14625000
      Fe_3       10.23803397   10.52775281   24.14625000
      Fe_3        0.06787970   14.05007152   24.14625000
      Fe_3        4.13593897   14.05007152   24.14625000
      Fe_3        8.20399824   14.05007152   24.14625000
      Fe_3        2.10190324   17.57236909   24.14625000
      Fe_3        6.16997470   17.57236909   24.14625000
      Fe_3       10.23803397   17.57236909   24.14625000
      Fe_3        0.06787970   21.09468781   24.14625000
      Fe_3        4.13593897   21.09468781   24.14625000
      Fe_3        8.20399824   21.09468781   24.14625000
      Fe_3        2.04796072    3.51426671   29.58187500
      Fe_3        6.11601998    3.51426671   29.58187500
      Fe_3       10.18407925    3.51426671   29.58187500
      Fe_3        0.01392498    7.03658542   29.58187500
      Fe_3        4.08198425    7.03658542   29.58187500
      Fe_3        8.15005572    7.03658542   29.58187500
      Fe_3        2.04796072   10.55890413   29.58187500
      Fe_3        6.11601998   10.55890413   29.58187500
      Fe_3       10.18407925   10.55890413   29.58187500
      Fe_3        0.01392498   14.08120171   29.58187500
      Fe_3        4.08198425   14.08120171   29.58187500
      Fe_3        8.15005572   14.08120171   29.58187500
      Fe_3        2.04796072   17.60352042   29.58187500
      Fe_3        6.11601998   17.60352042   29.58187500
      Fe_3       10.18407925   17.60352042   29.58187500
      Fe_3        0.01392498   21.12583913   29.58187500
      Fe_3        4.08198425   21.12583913   29.58187500
      Fe_3        8.15005572   21.12583913   29.58187500
      Fe_3        2.04708201    3.51477392   32.38575000
      Fe_3        6.11515348    3.51477392   32.38575000
      Fe_3       10.18321275    3.51477392   32.38575000
      Fe_3        0.01305848    7.03709263   32.38575000
      Fe_3        4.08111775    7.03709263   32.38575000
      Fe_3        8.14917701    7.03709263   32.38575000
      Fe_3        2.04708201   10.55939021   32.38575000
      Fe_3        6.11515348   10.55939021   32.38575000
      Fe_3       10.18321275   10.55939021   32.38575000
      Fe_3        0.01305848   14.08170892   32.38575000
      Fe_3        4.08111775   14.08170892   32.38575000
      Fe_3        8.14917701   14.08170892   32.38575000
      Fe_3        2.04708201   17.60402763   32.38575000
      Fe_3        6.11515348   17.60402763   32.38575000
      Fe_3       10.18321275   17.60402763   32.38575000
      Fe_3        0.01305848   21.12632521   32.38575000
      Fe_3        4.08111775   21.12632521   32.38575000
      Fe_3        8.14917701   21.12632521   32.38575000
      Fe_3        4.05014351    0.01033446   37.84372500
      Fe_3        8.11820278    0.01033446   37.84372500
      Fe_3       12.18627425    0.01033446   37.84372500
      Fe_3        2.01610778    3.53265317   37.84372500
      Fe_3        6.08417925    3.53265317   37.84372500
      Fe_3       10.15223851    3.53265317   37.84372500
      Fe_3        4.05014351    7.05497189   37.84372500
      Fe_3        8.11820278    7.05497189   37.84372500
      Fe_3       12.18627425    7.05497189   37.84372500
      Fe_3        2.01610778   10.57726946   37.84372500
      Fe_3        6.08417925   10.57726946   37.84372500
      Fe_3       10.15223851   10.57726946   37.84372500
      Fe_3        4.05014351   14.09958817   37.84372500
      Fe_3        8.11820278   14.09958817   37.84372500
      Fe_3       12.18627425   14.09958817   37.84372500
      Fe_3        2.01610778   17.62190689   37.84372500
      Fe_3        6.08417925   17.62190689   37.84372500
      Fe_3       10.15223851   17.62190689   37.84372500
      Fe_3        4.04433432    0.01369475   40.64910000
      Fe_3        8.11239359    0.01369475   40.64910000
      Fe_3       12.18046505    0.01369475   40.64910000
      Fe_3        2.01029859    3.53601346   40.64910000
      Fe_3        6.07837005    3.53601346   40.64910000
      Fe_3       10.14642932    3.53601346   40.64910000
      Fe_3        4.04433432    7.05831104   40.64910000
      Fe_3        8.11239359    7.05831104   40.64910000
      Fe_3       12.18046505    7.05831104   40.64910000
      Fe_3        2.01029859   10.58062975   40.64910000
      Fe_3        6.07837005   10.58062975   40.64910000
      Fe_3       10.14642932   10.58062975   40.64910000
      Fe_3        4.04433432   14.10294846   40.64910000
      Fe_3        8.11239359   14.10294846   40.64910000
      Fe_3       12.18046505   14.10294846   40.64910000
      Fe_3        2.01029859   17.62526717   40.64910000
      Fe_3        6.07837005   17.62526717   40.64910000
      Fe_3       10.14642932   17.62526717   40.64910000
      Fe_3        2.05638161    3.50940592   46.10925000
      Fe_3        6.12445308    3.50940592   46.10925000
      Fe_3       10.19251234    3.50940592   46.10925000
      Fe_3        0.02235808    7.03172463   46.10925000
      Fe_3        4.09041734    7.03172463   46.10925000
      Fe_3        8.15847661    7.03172463   46.10925000
      Fe_3        2.05638161   10.55402221   46.10925000
      Fe_3        6.12445308   10.55402221   46.10925000
      Fe_3       10.19251234   10.55402221   46.10925000
      Fe_3        0.02235808   14.07634092   46.10925000
      Fe_3        4.09041734   14.07634092   46.10925000
      Fe_3        8.15847661   14.07634092   46.10925000
      Fe_3        2.05638161   17.59865963   46.10925000
      Fe_3        6.12445308   17.59865963   46.10925000
      Fe_3       10.19251234   17.59865963   46.10925000
      Fe_3        0.02235808   21.12095721   46.10925000
      Fe_3        4.09041734   21.12095721   46.10925000
      Fe_3        8.15847661   21.12095721   46.10925000
      Fe_3        2.05937163    3.50769407   48.91515000
      Fe_3        6.12743090    3.50769407   48.91515000
      Fe_3       10.19549016    3.50769407   48.91515000
      Fe_3        0.02533590    7.02999165   48.91515000
      Fe_3        4.09339516    7.02999165   48.91515000
      Fe_3        8.16146663    7.02999165   48.91515000
      Fe_3        2.05937163   10.55231036   48.91515000
      Fe_3        6.12743090   10.55231036   48.91515000
      Fe_3       10.19549016   10.55231036   48.91515000
      Fe_3        0.02533590   14.07462907   48.91515000
      Fe_3        4.09339516   14.07462907   48.91515000
      Fe_3        8.16146663   14.07462907   48.91515000
      Fe_3        2.05937163   17.59692665   48.91515000
      Fe_3        6.12743090   17.59692665   48.91515000
      Fe_3       10.19549016   17.59692665   48.91515000
      Fe_3        0.02533590   21.11924536   48.91515000
      Fe_3        4.09339516   21.11924536   48.91515000
      Fe_3        8.16146663   21.11924536   48.91515000
      Fe_3        2.05043817    3.51285074   54.37552500
      Fe_3        6.11849743    3.51285074   54.37552500
      Fe_3       10.18656890    3.51285074   54.37552500
      Fe_3        0.01640243    7.03514831   54.37552500
      Fe_3        4.08447390    7.03514831   54.37552500
      Fe_3        8.15253317    7.03514831   54.37552500
      Fe_3        2.05043817   10.55746703   54.37552500
      Fe_3        6.11849743   10.55746703   54.37552500
      Fe_3       10.18656890   10.55746703   54.37552500
      Fe_3        0.01640243   14.07978574   54.37552500
      Fe_3        4.08447390   14.07978574   54.37552500
      Fe_3        8.15253317   14.07978574   54.37552500
      Fe_3        2.05043817   17.60208331   54.37552500
      Fe_3        6.11849743   17.60208331   54.37552500
      Fe_3       10.18656890   17.60208331   54.37552500
      Fe_3        0.01640243   21.12440203   54.37552500
      Fe_3        4.08447390   21.12440203   54.37552500
      Fe_3        8.15253317   21.12440203   54.37552500
      Fe_3        4.02472219    0.02502250   57.19710000
      Fe_3        8.09278145    0.02502250   57.19710000
      Fe_3       12.16085292    0.02502250   57.19710000
      Fe_3        1.99068645    3.54732008   57.19710000
      Fe_3        6.05875792    3.54732008   57.19710000
      Fe_3       10.12681719    3.54732008   57.19710000
      Fe_3        4.02472219    7.06963879   57.19710000
      Fe_3        8.09278145    7.06963879   57.19710000
      Fe_3       12.16085292    7.06963879   57.19710000
      Fe_3        1.99068645   10.59195750   57.19710000
      Fe_3        6.05875792   10.59195750   57.19710000
      Fe_3       10.12681719   10.59195750   57.19710000
      Fe_3        4.02472219   14.11425508   57.19710000
      Fe_3        8.09278145   14.11425508   57.19710000
      Fe_3       12.16085292   14.11425508   57.19710000
      Fe_3        1.99068645   17.63657379   57.19710000
      Fe_3        6.05875792   17.63657379   57.19710000
      Fe_3       10.12681719   17.63657379   57.19710000
      Fe_2        3.92581943    2.43031051   22.67947500
      Fe_2        7.99387870    2.43031051   22.67947500
      Fe_2       12.06193796    2.43031051   22.67947500
      Fe_2        1.89178370    5.95262923   22.67947500
      Fe_2        5.95984296    5.95262923   22.67947500
      Fe_2       10.02791443    5.95262923   22.67947500
      Fe_2        3.92581943    9.47494794   22.67947500
      Fe_2        7.99387870    9.47494794   22.67947500
      Fe_2       12.06193796    9.47494794   22.67947500
      Fe_2        1.89178370   12.99724551   22.67947500
      Fe_2        5.95984296   12.99724551   22.67947500
      Fe_2       10.02791443   12.99724551   22.67947500
      Fe_2        3.92581943   16.51956423   22.67947500
      Fe_2        7.99387870   16.51956423   22.67947500
      Fe_2       12.06193796   16.51956423   22.67947500
      Fe_2        1.89178370   20.04188294   22.67947500
      Fe_2        5.95984296   20.04188294   22.67947500
      Fe_2       10.02791443   20.04188294   22.67947500
      Fe_2        1.98746455    1.20097443   30.98407500
      Fe_2        6.05552381    1.20097443   30.98407500
      Fe_2       10.12359528    1.20097443   30.98407500
      Fe_2        4.02150028    4.72329314   30.98407500
      Fe_2        8.08955955    4.72329314   30.98407500
      Fe_2       12.15761881    4.72329314   30.98407500
      Fe_2        1.98746455    8.24561185   30.98407500
      Fe_2        6.05552381    8.24561185   30.98407500
      Fe_2       10.12359528    8.24561185   30.98407500
      Fe_2        4.02150028   11.76790943   30.98407500
      Fe_2        8.08955955   11.76790943   30.98407500
      Fe_2       12.15761881   11.76790943   30.98407500
      Fe_2        1.98746455   15.29022814   30.98407500
      Fe_2        6.05552381   15.29022814   30.98407500
      Fe_2       10.12359528   15.29022814   30.98407500
      Fe_2        4.02150028   18.81254685   30.98407500
      Fe_2        8.08955955   18.81254685   30.98407500
      Fe_2       12.15761881   18.81254685   30.98407500
      Fe_2        0.04638813    2.32142882   39.24660000
      Fe_2        4.11445960    2.32142882   39.24660000
      Fe_2        8.18251886    2.32142882   39.24660000
      Fe_2        2.08042386    5.84374753   39.24660000
      Fe_2        6.14848313    5.84374753   39.24660000
      Fe_2       10.21655460    5.84374753   39.24660000
      Fe_2        0.04638813    9.36604510   39.24660000
      Fe_2        4.11445960    9.36604510   39.24660000
      Fe_2        8.18251886    9.36604510   39.24660000
      Fe_2        2.08042386   12.88836382   39.24660000
      Fe_2        6.14848313   12.88836382   39.24660000
      Fe_2       10.21655460   12.88836382   39.24660000
      Fe_2        0.04638813   16.41068253   39.24660000
      Fe_2        4.11445960   16.41068253   39.24660000
      Fe_2        8.18251886   16.41068253   39.24660000
      Fe_2        2.08042386   19.93298010   39.24660000
      Fe_2        6.14848313   19.93298010   39.24660000
      Fe_2       10.21655460   19.93298010   39.24660000
      Fe_2        1.98814798    1.20059402   47.51295000
      Fe_2        6.05621945    1.20059402   47.51295000
      Fe_2       10.12427872    1.20059402   47.51295000
      Fe_2        4.02218372    4.72289160   47.51295000
      Fe_2        8.09024298    4.72289160   47.51295000
      Fe_2       12.15831445    4.72289160   47.51295000
      Fe_2        1.98814798    8.24521031   47.51295000
      Fe_2        6.05621945    8.24521031   47.51295000
      Fe_2       10.12427872    8.24521031   47.51295000
      Fe_2        4.02218372   11.76752902   47.51295000
      Fe_2        8.09024298   11.76752902   47.51295000
      Fe_2       12.15831445   11.76752902   47.51295000
      Fe_2        1.98814798   15.28982660   47.51295000
      Fe_2        6.05621945   15.28982660   47.51295000
      Fe_2       10.12427872   15.28982660   47.51295000
      Fe_2        4.02218372   18.81214531   47.51295000
      Fe_2        8.09024298   18.81214531   47.51295000
      Fe_2       12.15831445   18.81214531   47.51295000
      Fe_2        0.07115043    2.30714232   55.81852500
      Fe_2        4.13922190    2.30714232   55.81852500
      Fe_2        8.20728116    2.30714232   55.81852500
      Fe_2        2.10518616    5.82943990   55.81852500
      Fe_2        6.17324543    5.82943990   55.81852500
      Fe_2       10.24131690    5.82943990   55.81852500
      Fe_2        0.07115043    9.35175861   55.81852500
      Fe_2        4.13922190    9.35175861   55.81852500
      Fe_2        8.20728116    9.35175861   55.81852500
      Fe_2        2.10518616   12.87407732   55.81852500
      Fe_2        6.17324543   12.87407732   55.81852500
      Fe_2       10.24131690   12.87407732   55.81852500
      Fe_2        0.07115043   16.39637490   55.81852500
      Fe_2        4.13922190   16.39637490   55.81852500
      Fe_2        8.20728116   16.39637490   55.81852500
      Fe_2        2.10518616   19.91869361   55.81852500
      Fe_2        6.17324543   19.91869361   55.81852500
      Fe_2       10.24131690   19.91869361   55.81852500
      Ge          1.94517703    1.22538405   22.73602500
      Ge          6.01323629    1.22538405   22.73602500
      Ge         10.08130776    1.22538405   22.73602500
      Ge          3.97921276    4.74770276   22.73602500
      Ge          8.04727203    4.74770276   22.73602500
      Ge         12.11533129    4.74770276   22.73602500
      Ge          1.94517703    8.27002147   22.73602500
      Ge          6.01323629    8.27002147   22.73602500
      Ge         10.08130776    8.27002147   22.73602500
      Ge          3.97921276   11.79231905   22.73602500
      Ge          8.04727203   11.79231905   22.73602500
      Ge         12.11533129   11.79231905   22.73602500
      Ge          1.94517703   15.31463776   22.73602500
      Ge          6.01323629   15.31463776   22.73602500
      Ge         10.08130776   15.31463776   22.73602500
      Ge          3.97921276   18.83695647   22.73602500
      Ge          8.04727203   18.83695647   22.73602500
      Ge         12.11533129   18.83695647   22.73602500
      Ge          4.05072932    2.35822288   30.98407500
      Ge          8.11878858    2.35822288   30.98407500
      Ge         12.18686005    2.35822288   30.98407500
      Ge          2.01669358    5.88052046   30.98407500
      Ge          6.08476505    5.88052046   30.98407500
      Ge         10.15282432    5.88052046   30.98407500
      Ge          4.05072932    9.40283917   30.98407500
      Ge          8.11878858    9.40283917   30.98407500
      Ge         12.18686005    9.40283917   30.98407500
      Ge          2.01669358   12.92515788   30.98407500
      Ge          6.08476505   12.92515788   30.98407500
      Ge         10.15282432   12.92515788   30.98407500
      Ge          4.05072932   16.44745546   30.98407500
      Ge          8.11878858   16.44745546   30.98407500
      Ge         12.18686005   16.44745546   30.98407500
      Ge          2.01669358   19.96977417   30.98407500
      Ge          6.08476505   19.96977417   30.98407500
      Ge         10.15282432   19.96977417   30.98407500
      Ge          2.04787529    1.16610354   39.24727500
      Ge          6.11594676    1.16610354   39.24727500
      Ge         10.18400602    1.16610354   39.24727500
      Ge          0.01385176    4.68842226   39.24727500
      Ge          4.08191102    4.68842226   39.24727500
      Ge          8.14997029    4.68842226   39.24727500
      Ge          2.04787529    8.21074097   39.24727500
      Ge          6.11594676    8.21074097   39.24727500
      Ge         10.18400602    8.21074097   39.24727500
      Ge          0.01385176   11.73303854   39.24727500
      Ge          4.08191102   11.73303854   39.24727500
      Ge          8.14997029   11.73303854   39.24727500
      Ge          2.04787529   15.25535726   39.24727500
      Ge          6.11594676   15.25535726   39.24727500
      Ge         10.18400602   15.25535726   39.24727500
      Ge          0.01385176   18.77767597   39.24727500
      Ge          4.08191102   18.77767597   39.24727500
      Ge          8.14997029   18.77767597   39.24727500
      Ge          4.05533030    2.35556002   47.51025000
      Ge          8.12340176    2.35556002   47.51025000
      Ge         12.19146103    2.35556002   47.51025000
      Ge          2.02130676    5.87785759   47.51025000
      Ge          6.08936603    5.87785759   47.51025000
      Ge         10.15742530    5.87785759   47.51025000
      Ge          4.05533030    9.40017631   47.51025000
      Ge          8.12340176    9.40017631   47.51025000
      Ge         12.19146103    9.40017631   47.51025000
      Ge          2.02130676   12.92249502   47.51025000
      Ge          6.08936603   12.92249502   47.51025000
      Ge         10.15742530   12.92249502   47.51025000
      Ge          4.05533030   16.44479259   47.51025000
      Ge          8.12340176   16.44479259   47.51025000
      Ge         12.19146103   16.44479259   47.51025000
      Ge          2.02130676   19.96711131   47.51025000
      Ge          6.08936603   19.96711131   47.51025000
      Ge         10.15742530   19.96711131   47.51025000
      Ge          2.08502484    1.14467380   55.76812500
      Ge          6.15308411    1.14467380   55.76812500
      Ge         10.22115558    1.14467380   55.76812500
      Ge          0.05098911    4.66697138   55.76812500
      Ge          4.11906058    4.66697138   55.76812500
      Ge          8.18711984    4.66697138   55.76812500
      Ge          2.08502484    8.18929009   55.76812500
      Ge          6.15308411    8.18929009   55.76812500
      Ge         10.22115558    8.18929009   55.76812500
      Ge          0.05098911   11.71160880   55.76812500
      Ge          4.11906058   11.71160880   55.76812500
      Ge          8.18711984   11.71160880   55.76812500
      Ge          2.08502484   15.23390638   55.76812500
      Ge          6.15308411   15.23390638   55.76812500
      Ge         10.22115558   15.23390638   55.76812500