#Generated by Multiwfn
&GLOBAL
  PROJECT cp2k
  PRINT_LEVEL MEDIUM
  RUN_TYPE ENERGY_FORCE
  PREFERRED_DIAG_LIBRARY SL
&END GLOBAL

&FORCE_EVAL
  METHOD Quickstep
  &SUBSYS
    &TOPOLOGY
      COORD_FILE_FORMAT CIF #The format of the file providing coordinates
      COORD_FILE_NAME input.cif
    &END TOPOLOGY
    &CELL
      CELL_FILE_FORMAT CIF
      CELL_FILE_NAME input.cif
      PERIODIC XYZ #Direction(s) of applied PBC (geometry aspect)
    &END CELL
    &KIND Ge
      ELEMENT Ge
      BASIS_SET TZVP-MOLOPT-PBE-GTH-q4
      POTENTIAL GTH-PBE
    &END KIND
    &KIND Te
      ELEMENT Te
      BASIS_SET TZVP-MOLOPT-PBE-GTH-q6
      POTENTIAL GTH-PBE
    &END KIND
  &END SUBSYS

  &DFT
    BASIS_SET_FILE_NAME  BASIS_MOLOPT_UZH
    POTENTIAL_FILE_NAME  POTENTIAL
#   WFN_RESTART_FILE_NAME input-RESTART.wfn
    CHARGE    0 #Net charge
    MULTIPLICITY    1 #Spin multiplicity
    &KPOINTS
      SCHEME MONKHORST-PACK  2  2  2
    &END KPOINTS
    &QS
      EPS_DEFAULT 1.0E-14 #Set all EPS_xxx to values such that the energy will be correct up to this value
    &END QS
    &POISSON
      PERIODIC XYZ #Direction(s) of PBC for calculating electrostatics
      PSOLVER PERIODIC #The way to solve Poisson equation
    &END POISSON
    &XC
      &XC_FUNCTIONAL PBE
      &END XC_FUNCTIONAL
    &END XC
    &MGRID
      CUTOFF  400
      REL_CUTOFF  55
    &END MGRID
    &SCF
      MAX_SCF 128
      EPS_SCF 1.0E-07 #Convergence threshold of density matrix of inner SCF
#     SCF_GUESS RESTART #Use wavefunction from WFN_RESTART_FILE_NAME file as initial guess
      &DIAGONALIZATION
        ALGORITHM STANDARD #Algorithm for diagonalization
      &END DIAGONALIZATION
      &MIXING #How to mix old and new density matrices
        METHOD BROYDEN_MIXING #PULAY_MIXING is also a good alternative
        ALPHA 0.4 #Default. Mixing 40% of new density matrix with the old one
        NBROYDEN 8 #Default is 4. Number of previous steps stored for the actual mixing scheme
      &END MIXING
      &SMEAR
        METHOD FERMI_DIRAC
        ELECTRONIC_TEMPERATURE 300 #Electronic temperature of Fermi-Dirac smearing in K
      &END SMEAR
      ADDED_MOS    96 #Number of virtual MOs to solve
      &PRINT
        &RESTART OFF
        &END RESTART
      &END PRINT
    &END SCF
  &END DFT
  &PRINT
    &FORCES ON #Print atomic forces
    &END FORCES
  &END PRINT
&END FORCE_EVAL
