#Generated by Multiwfn
&GLOBAL
  PROJECT POSCAR
  PRINT_LEVEL MEDIUM
  RUN_TYPE CELL_OPT
&END GLOBAL

&FORCE_EVAL
  METHOD Quickstep
  &SUBSYS
    &CELL
      A    21.13400000     0.00000000     0.00000000
      B     0.00000000    26.64700000     0.00000000
      C     0.00000000     0.00000000     4.01400000
      PERIODIC XYZ #Direction(s) of applied PBC (geometry aspect)
    &END CELL
    &COORD
      O           2.52086352    6.12241472    0.13125780
      O           3.73585718   12.65332795    0.25609320
      O           4.48822758    9.02134185    0.10757520
      O           5.98092200    5.71977855    0.34440120
      O           8.17188378    2.83124375    0.24806520
      O           9.55404738    6.07471659    0.08710380
      O          21.01712898    3.61200085    0.33998580
      O           7.26946198   11.72094942    0.21234060
      O          11.63661287    2.99165869    0.09151920
      O          11.04188098   11.45954235    2.21131260
      O          12.13873558    8.90143035    2.21131260
      O           0.89967438    7.17470475    2.33534520
      O          12.26152412    0.94516909    2.26750860
      O          14.82740306    7.88404789    2.53162980
      O          16.40146338    5.72777265    2.25907920
      O          14.11265118    2.54878555    2.28356460
      O          20.35584612   11.55333979    2.30443740
      O          17.21913784    9.36535462    2.33895780
      O          16.87465364    3.31355445    2.17879920
      O          16.27444804    0.80633822    2.31527520
      O          18.36058518    6.82029965    2.19124260
      O          19.20594518    0.43860962    2.13424380
      O          17.61476632   12.13131322    2.42325180
      O          19.98790318    9.09089052    2.27112120
      O          20.10202678    5.29369302    2.28356460
      O           3.18848658    7.98237532    2.18281320
      O           7.52729678    8.52597412    0.23602320
      O          19.15923904    3.06600382    2.27112120
      O          -2.52086352   -6.12241472    0.13125780
      O          -3.73585718  -12.65332795    0.25609320
      O          -4.48822758   -9.02134185    0.10757520
      O          -5.98092200   -5.71977855    0.34440120
      O          -8.17188378   -2.83124375    0.24806520
      O          -9.55404738   -6.07471659    0.08710380
      O         -21.01712898   -3.61200085    0.33998580
      O          -7.26946198  -11.72094942    0.21234060
      O         -11.63661287   -2.99165869    0.09151920
      O         -11.04188098  -11.45954235    2.21131260
      O         -12.13873558   -8.90143035    2.21131260
      O          -0.89967438   -7.17470475    2.33534520
      O         -12.26152412   -0.94516909    2.26750860
      O         -14.82740306   -7.88404789    2.53162980
      O         -16.40146338   -5.72777265    2.25907920
      O         -14.11265118   -2.54878555    2.28356460
      O         -20.35584612  -11.55333979    2.30443740
      O         -17.21913784   -9.36535462    2.33895780
      O         -16.87465364   -3.31355445    2.17879920
      O         -16.27444804   -0.80633822    2.31527520
      O         -18.36058518   -6.82029965    2.19124260
      O         -19.20594518   -0.43860962    2.13424380
      O         -17.61476632  -12.13131322    2.42325180
      O         -19.98790318   -9.09089052    2.27112120
      O         -20.10202678   -5.29369302    2.28356460
      O          -3.18848658   -7.98237532    2.18281320
      O          -7.52729678   -8.52597412    0.23602320
      O         -19.15923904   -3.06600382    2.27112120
      O          13.08786352    7.20108528    0.13125780
      O          14.30285718    0.67017205    0.25609320
      O          15.05522758    4.30215815    0.10757520
      O          16.54792200    7.60372145    0.34440120
      O          18.73888378   10.49225625    0.24806520
      O          20.12104738    7.24878341    0.08710380
      O          31.58412898    9.71149915    0.33998580
      O          17.83646198    1.60255058    0.21234060
      O          22.20361287   10.33184131    0.09151920
      O          21.60888098    1.86395765    2.21131260
      O          22.70573558    4.42206965    2.21131260
      O          11.46667438    6.14879525    2.33534520
      O          22.82852412   12.37833091    2.26750860
      O          25.39440306    5.43945211    2.53162980
      O          26.96846338    7.59572735    2.25907920
      O          24.67965118   10.77471445    2.28356460
      O          30.92284612    1.77016021    2.30443740
      O          27.78613784    3.95814538    2.33895780
      O          27.44165364   10.00994555    2.17879920
      O          26.84144804   12.51716178    2.31527520
      O          28.92758518    6.50320035    2.19124260
      O          29.77294518   12.88489038    2.13424380
      O          28.18176632    1.19218678    2.42325180
      O          30.55490318    4.23260948    2.27112120
      O          30.66902678    8.02980698    2.28356460
      O          13.75548658    5.34112468    2.18281320
      O          18.09429678    4.79752588    0.23602320
      O          29.72623904   10.25749618    2.27112120
      O           8.04613648   19.44591472    0.13125780
      O           6.83114282   25.97682795    0.25609320
      O           6.07877242   22.34484185    0.10757520
      O           4.58607800   19.04327855    0.34440120
      O           2.39511622   16.15474375    0.24806520
      O           1.01295262   19.39821659    0.08710380
      O         -10.45012898   16.93550085    0.33998580
      O           3.29753802   25.04444942    0.21234060
      O          -1.06961287   16.31515869    0.09151920
      O          -0.47488098   24.78304235    2.21131260
      O          -1.57173558   22.22493035    2.21131260
      O           9.66732562   20.49820475    2.33534520
      O          -1.69452412   14.26866909    2.26750860
      O          -4.26040306   21.20754789    2.53162980
      O          -5.83446338   19.05127265    2.25907920
      O          -3.54565118   15.87228555    2.28356460
      O          -9.78884612   24.87683979    2.30443740
      O          -6.65213784   22.68885462    2.33895780
      O          -6.30765364   16.63705445    2.17879920
      O          -5.70744804   14.12983822    2.31527520
      O          -7.79358518   20.14379965    2.19124260
      O          -8.63894518   13.76210962    2.13424380
      O          -7.04776632   25.45481322    2.42325180
      O          -9.42090318   22.41439052    2.27112120
      O          -9.53502678   18.61719302    2.28356460
      O           7.37851342   21.30587532    2.18281320
      O           3.03970322   21.84947412    0.23602320
      O          -8.59223904   16.38950382    2.27112120
      O           0.00000000    0.00000000    0.07586460
      O          10.56700000   13.32350000    0.07586460
      O           0.00000000   13.32350000    0.24525540
      O          10.56700000    0.00000000    0.24525540
      V           2.48472438    6.08777362    1.87333380
      V           8.11883744    2.71399695    1.97368380
      V          -2.48472438   -6.08777362    1.87333380
      V          -8.11883744   -2.71399695    1.97368380
      V          13.05172438    7.23572638    1.87333380
      V          18.68583744   10.60950305    1.97368380
      V           8.08227562   19.41127362    1.87333380
      V           2.44816256   16.03749695    1.97368380
      V           0.00000000   13.32350000    2.49229260
      V          10.56700000    0.00000000    2.49229260
      Nb          7.59027610    8.46681778    1.98131040
      Nb         -7.59027610   -8.46681778    1.98131040
      Nb         18.15727610    4.85668222    1.98131040
      Nb          2.97672390   21.79031778    1.98131040
      Mo          3.73564584   12.72261015    2.06199180
      Mo          4.47956264    9.13299278    2.51958780
      Mo          5.91857670    5.64490048    2.59585380
      Mo          9.71001630    6.07125248    2.55169980
      Mo          0.03085564    3.54245218    2.65164840
      Mo          7.24367850   11.74972818    2.57939640
      Mo         -3.73564584  -12.72261015    2.06199180
      Mo         -4.47956264   -9.13299278    2.51958780
      Mo         -5.91857670   -5.64490048    2.59585380
      Mo         -9.71001630   -6.07125248    2.55169980
      Mo         -0.03085564   -3.54245218    2.65164840
      Mo         -7.24367850  -11.74972818    2.57939640
      Mo         14.30264584    0.60088985    2.06199180
      Mo         15.04656264    4.19050722    2.51958780
      Mo         16.48557670    7.67859952    2.59585380
      Mo         20.27701630    7.25224752    2.55169980
      Mo         10.59785564    9.78104782    2.65164840
      Mo         17.81067850    1.57377182    2.57939640
      Mo          6.83135416   26.04611015    2.06199180
      Mo          6.08743736   22.45649278    2.51958780
      Mo          4.64842330   18.96840048    2.59585380
      Mo          0.85698370   19.39475248    2.55169980
      Mo         10.53614436   16.86595218    2.65164840
      Mo          3.32332150   25.07322818    2.57939640
      Mo          0.00000000    0.00000000    2.00700000
      Mo         10.56700000   13.32350000    2.00700000
      Te         11.62095258    2.77768328    2.18682720
      Te        -11.62095258   -2.77768328    2.18682720
      Te         22.18795258   10.54581672    2.18682720
      Te         -1.05395258   16.10118328    2.18682720
    &END COORD
    &KIND O
      ELEMENT O
      BASIS_SET TZVP-MOLOPT-GTH-q6
      POTENTIAL GTH-PBE
    &END KIND
    &KIND Nb
      ELEMENT Nb
      BASIS_SET TZVP-MOLOPT-SR-GTH-q13
      POTENTIAL GTH-PBE
    &END KIND
    &KIND V
      ELEMENT V
      BASIS_SET TZVP-MOLOPT-SR-GTH-q13
      POTENTIAL GTH-PBE
      MAGNETIZATION  0.60
    &END KIND
    &KIND Mo
      ELEMENT Mo
      BASIS_SET TZVP-MOLOPT-SR-GTH-q14
      POTENTIAL GTH-PBE
      MAGNETIZATION  0.20
    &END KIND
    &KIND Te
      ELEMENT Te
      BASIS_SET TZVP-MOLOPT-SR-GTH-q6
      POTENTIAL GTH-PBE
      MAGNETIZATION  0.05
    &END KIND
  &END SUBSYS

  &DFT
    BASIS_SET_FILE_NAME  BASIS_MOLOPT
	BASIS_SET_FILE_NAME  BASIS_MOLOPT_UCL
    POTENTIAL_FILE_NAME  POTENTIAL
   WFN_RESTART_FILE_NAME POSCAR-RESTART.kp
    CHARGE    0 #Net charge
    MULTIPLICITY   13 #Spin multiplicity
    UKS
    &KPOINTS
      SCHEME MONKHORST-PACK  1  1  6
    &END KPOINTS
    &QS
      EPS_DEFAULT 1.0E-12 #Set all EPS_xxx to values such that the energy will be correct up to this value
     EXTRAPOLATION USE_PREV_P #Use converged density matrix of last geometry as initial guess
    &END QS
    &POISSON
      PERIODIC XYZ #Direction(s) of PBC for calculating electrostatics
      PSOLVER PERIODIC #The way to solve Poisson equation
    &END POISSON
    &XC
      &XC_FUNCTIONAL PBE
        &PBE
          PARAMETRIZATION PBESOL
        &END PBE
      &END XC_FUNCTIONAL
#      &VDW_POTENTIAL
#        POTENTIAL_TYPE PAIR_POTENTIAL
#       &PAIR_POTENTIAL
#          PARAMETER_FILE_NAME dftd3.dat
#          TYPE DFTD3(BJ)
#          REFERENCE_FUNCTIONAL PBEsol
#          #CALCULATE_C9_TERM T #Calculate C9-related three-body term, more accurate for large system
#        &END PAIR_POTENTIAL
#      &END VDW_POTENTIAL
    &END XC
    &MGRID
      CUTOFF  600
      REL_CUTOFF  60
    &END MGRID
    &SCF
      MAX_SCF 64
      EPS_SCF 1.0E-06 #Convergence threshold of density matrix of inner SCF
#     SCF_GUESS RESTART #Use wavefunction from WFN_RESTART_FILE_NAME file as initial guess
     IGNORE_CONVERGENCE_FAILURE #Continue calculation even if SCF not converged, works for version >= 2024.1
      &DIAGONALIZATION
        ALGORITHM STANDARD #Algorithm for diagonalization
      &END DIAGONALIZATION
      &MIXING #How to mix old and new density matrices
        METHOD BROYDEN_MIXING #PULAY_MIXING is also a good alternative
        ALPHA 0.4 #Default. Mixing 40% of new density matrix with the old one
        NBROYDEN 8 #Default is 4. Number of previous steps stored for the actual mixing scheme
      &END MIXING
      ADDED_MOS    10    10 #Number of virtual MOs to solve for alpha and beta spins
      &PRINT
        &RESTART #Note: Use "&RESTART OFF" can prevent generating .wfn file
          BACKUP_COPIES 0 #Maximum number of backup copies of wfn file. 0 means never
        &END RESTART
      &END PRINT
    &END SCF
  &END DFT
  &PRINT
    &STRESS_TENSOR ON #Print stress tensor
    &END STRESS_TENSOR
  &END PRINT
  STRESS_TENSOR ANALYTICAL #Compute full stress tensor analytically
&END FORCE_EVAL

&MOTION
  &CELL_OPT
    MAX_ITER 400 #Maximum number of geometry optimization
    EXTERNAL_PRESSURE  1.01325E+00 #External pressure for cell optimization (bar)
    CONSTRAINT NONE #Constraint of cell length, can be: NONE, X, Y, Z, XY, XZ, YZ
    KEEP_ANGLES F #If T, then cell angles will be kepted
    KEEP_SYMMETRY F #If T, then cell symmetry specified by &CELL / SYMMETRY will be kepted
    KEEP_SPACE_GROUP F #If T, then space group will be detected and preserved
    TYPE DIRECT_CELL_OPT #Geometry and cell are optimized at the same time. Can also be GEO_OPT, MD
    #The following thresholds of optimization convergence are the default ones
    MAX_DR 3E-3 #Maximum geometry change
    RMS_DR 1.5E-3 #RMS geometry change
    MAX_FORCE 4.5E-4 #Maximum force
    RMS_FORCE 3E-4 #RMS force
    PRESSURE_TOLERANCE 100 #Pressure tolerance (w.r.t EXTERNAL_PRESSURE)
    OPTIMIZER BFGS #Can also be CG (more robust for difficult cases) or LBFGS
    &BFGS
      TRUST_RADIUS 0.2 #Trust radius (maximum stepsize) in Angstrom
#     RESTART_HESSIAN T #If read initial Hessian, uncomment this line and specify the file in the next line
#     RESTART_FILE_NAME to_be_specified
    &END BFGS
  &END CELL_OPT
  &PRINT
    &TRAJECTORY
      FORMAT pdb
    &END TRAJECTORY
    &RESTART
      BACKUP_COPIES 0 #Maximum number of backing up restart file, 0 means never
    &END RESTART
    &RESTART_HISTORY OFF 
    &END RESTART_HISTORY
  &END PRINT
&END MOTION
