SYSTEM = GeTe

#NCORE = 8
ISTART = 0
ICHARG = 2
LCHARG = .F.
LWAVE = .F.
IVDW = 12

ALGO = Fast
NELM = 100
EDIFF = 1E-08

ISIF = 3
IBRION = 6
NSW = 1
NFREE = 4
EDIFFG = -1E-02
POTIM = 0.01

ENCUT = 600
ISMEAR = 0
SIGMA = 0.05
PREC = A
LREAL = A
ADDGRID = .T.
