SYSTEM = GeTe

KPAR = 3
NCORE = 12
ISTART = 0
ICHARG = 2
LCHARG = .F.
LWAVE = .F.
KSPACING = 0.2
KGAMMA = .T.
ISYM = 0

ALGO = Normal
NELM = 120
NELMIN = 4
EDIFF = 1E-06

IBRION = -1
NSW = 0
EDIFFG = -1E-03

ENCUT = 600
ISMEAR = 0
SIGMA = 0.02
PREC = A
LREAL = A
ADDGRID = .T.

