SYSTEM = GeTe

KPAR = 3
NCORE = 8
ISTART = 0
ICHARG = 2
LCHARG = .F.
LWAVE = .F.
KSPACING = 0.1
KGAMMA = .T.
ISYM = 0

ALGO = Fast
NELM = 120
NELMIN = 4
EDIFF = 1E-07

IBRION = -1
NSW = 0
EDIFFG = -1E-03

METAGGA = SCAN
LUSE_VDW = .T.
BPARAM = 15.7
LASPH = .T.

ENCUT = 1000
ISMEAR = 0
SIGMA = 0.02
PREC = A
LREAL = A
ADDGRID = .T.
