SYSTEM = GeTe

# 不要设置KPAR、NCORE等并行参数
ISTART = 0
ICHARG = 2
LCHARG = .F.
LWAVE = .F.
KSPACING = 0.1
KGAMMA = .T.
ISYM = 0

ALGO = Fast
NELM = 120
NELMIN = 4
EDIFF = 1E-08

ISIF = 3
IBRION = 6
NSW = 1
NFREE = 4
EDIFFG = -1E-03
POTIM = 0.01

ENCUT = 600
ISMEAR = 0
SIGMA = 0.02
PREC = A
LREAL = A
ADDGRID = .T.
