SYSTEM = GeTe

NCORE = 6
ISTART = 0
ICHARG = 2
LCHARG = .F.
LWAVE = .F.
KSPACING = 0.2
KGAMMA = .T.

ALGO = Normal
NELM = 120
NELMIN = 4
EDIFF = 1E-07

ISIF = 2
IBRION = 3
NSW = 100
EDIFFG = -1E-01
POTIM = 0

IOPT = 3
IMAGES = 7
MAXMOVE = 0.2
TIMESTEP = 0.1

ENCUT = 600
ISMEAR = 0
SIGMA = 0.02
PREC = A
LREAL = A
ADDGRID = .T.

