SYSTEM = GeTe

NCORE = 8
ISTART = 0
ICHARG = 2
LWAVE = .F.
LCHARG = .F.
IVDW = 12

ALGO = Fast
NELM = 300
EDIFF = 1E-05

IBRION = 0
POTIM = 2.0
NSW = 5000
TEBEG = 2000
TEEND = 2000
MDALGO = 2
ISIF = 2
ISYM = 0
SMASS = 0
NBLOCK = 1

ML_MODE = train
ML_LMLFF = .T.
# ML_ISTART = 1

ENCUT = 400
ISMEAR = 0
SIGMA = 0.05
PREC = A
LREAL = A
