SYSTEM = GeTe

NCORE = 8
ISTART = 0
ICHARG = 2
#LCHARG = .F.
#LWAVE = .F.
IVDW = 12

ALGO = Fast
NELM = 100
EDIFF = 1E-05

IBRION = -1
NSW = 0
EDIFFG = -1E-02

ENCUT = 450
ISMEAR = 0
SIGMA = 0.05
PREC = A
LREAL = A
ADDGRID = .T.
