SYSTEM = GeTe

NCORE = 8
ISTART = 1
ICHARG = 11
LCHARG = .F.
LWAVE = .F.
IVDW = 12

ALGO = Fast
NELM = 100
EDIFF = 1E-05

IBRION = -1
NSW = 0
EDIFFG = -1E-02

LORBIT = 11
NEDOS = 2001

ENCUT = 450
ISMEAR = 0
SIGMA = 0.05
PREC = A
LREAL = A
ADDGRID = .T.
