SYSTEM = GeTe

NCORE = 8
KPAR = 4

ISTART = 0
ICHARG = 2
LCHARG = .F.
LWAVE = .F.

ALGO = Fast
NELM = 100
EDIFF = 1E-06

ISIF = 3
IBRION = 2
NSW = 500
EDIFFG = -1E-02
POTIM = 0.3

METAGGA = SCAN
LUSE_VDW = .T.
BPARAM = 15.7
LASPH = .T.

ENCUT = 1000
ISMEAR = 0
SIGMA = 0.05
PREC = A
LREAL = A
ADDGRID = .T.
